experiments/sat_smt/run/sat-r+/results/louise.res
solved=true
solvingTime=56.3269500732421875
nActions=13