experiments/sat_smt/run/sat-r+/results/louise.out
Timesteps: 1
s UNSATISFIABLE
real 0.12
user 0.01
sys 0.00
Timesteps: 2
s UNSATISFIABLE
real 0.11
user 0.02
sys 0.00
Timesteps: 3
s UNSATISFIABLE
real 0.18
user 0.05
sys 0.00
Timesteps: 4
s UNSATISFIABLE
real 0.14
user 0.08
sys 0.00
Timesteps: 5
s UNSATISFIABLE
real 0.27
user 0.18
sys 0.00
Timesteps: 6
s UNSATISFIABLE
real 0.83
user 0.73
sys 0.00
Timesteps: 7
s UNSATISFIABLE
real 1.71
user 1.52
sys 0.01
Timesteps: 8
s UNSATISFIABLE
real 3.28
user 3.13
sys 0.01
Timesteps: 9
s UNSATISFIABLE
real 4.84
user 4.65
sys 0.01
Timesteps: 10
s UNSATISFIABLE
real 6.39
user 6.19
sys 0.02
Timesteps: 11
s UNSATISFIABLE
real 7.08
user 6.87
sys 0.03
Timesteps: 12
s UNSATISFIABLE
real 16.34
user 15.80
sys 0.03
Timesteps: 13
s SATISFIABLE
real 15.43
user 14.85
sys 0.05
